c *********************************
c * Circuit generated by BenCGen
c *
c * Magnitude_29
c *
c * Ports with 1 gate(s): 31
c * Ports with 2 gate(s): 61
c * Ports with 3 gate(s): 1
c * Ports with 4 gate(s): 1
c * Ports with 5 gate(s): 1
c * Ports with 6 gate(s): 1
c * Ports with 7 gate(s): 1
c * Ports with 8 gate(s): 1
c * Ports with 9 gate(s): 1
c * Ports with 10 gate(s): 1
c * Ports with 11 gate(s): 1
c * Ports with 12 gate(s): 1
c * Ports with 13 gate(s): 1
c * Ports with 14 gate(s): 1
c * Ports with 15 gate(s): 1
c * Ports with 16 gate(s): 1
c * Ports with 17 gate(s): 1
c * Ports with 18 gate(s): 1
c * Ports with 19 gate(s): 1
c * Ports with 20 gate(s): 1
c * Ports with 21 gate(s): 1
c * Ports with 22 gate(s): 1
c * Ports with 23 gate(s): 1
c * Ports with 24 gate(s): 1
c * Ports with 25 gate(s): 1
c * Ports with 26 gate(s): 1
c * Ports with 27 gate(s): 1
c * Ports with 28 gate(s): 1
c * Ports with 29 gate(s): 3
c * Total gates: 121
c *********************************
p cnf 179 793
1 63 0
-1 -63 0
1 -62 0
63 -62 0
-1 -63 62 0
30 64 0
-30 -64 0
31 65 0
-31 -65 0
32 66 0
-32 -66 0
33 67 0
-33 -67 0
34 68 0
-34 -68 0
35 69 0
-35 -69 0
36 70 0
-36 -70 0
37 71 0
-37 -71 0
38 72 0
-38 -72 0
39 73 0
-39 -73 0
40 74 0
-40 -74 0
41 75 0
-41 -75 0
42 76 0
-42 -76 0
43 77 0
-43 -77 0
44 78 0
-44 -78 0
45 79 0
-45 -79 0
46 80 0
-46 -80 0
47 81 0
-47 -81 0
48 82 0
-48 -82 0
49 83 0
-49 -83 0
50 84 0
-50 -84 0
51 85 0
-51 -85 0
52 86 0
-52 -86 0
53 87 0
-53 -87 0
54 88 0
-54 -88 0
55 89 0
-55 -89 0
56 90 0
-56 -90 0
57 91 0
-57 -91 0
58 92 0
-58 -92 0
1 30 122 0
-1 30 -122 0
1 -30 -122 0
-1 -30 122 0
1 -93 0
64 -93 0
-1 -64 93 0
2 31 123 0
-2 31 -123 0
2 -31 -123 0
-2 -31 123 0
2 -94 0
65 -94 0
-2 -65 94 0
3 32 124 0
-3 32 -124 0
3 -32 -124 0
-3 -32 124 0
3 -95 0
66 -95 0
-3 -66 95 0
4 33 125 0
-4 33 -125 0
4 -33 -125 0
-4 -33 125 0
4 -96 0
67 -96 0
-4 -67 96 0
5 34 126 0
-5 34 -126 0
5 -34 -126 0
-5 -34 126 0
5 -97 0
68 -97 0
-5 -68 97 0
6 35 127 0
-6 35 -127 0
6 -35 -127 0
-6 -35 127 0
6 -98 0
69 -98 0
-6 -69 98 0
7 36 128 0
-7 36 -128 0
7 -36 -128 0
-7 -36 128 0
7 -99 0
70 -99 0
-7 -70 99 0
8 37 129 0
-8 37 -129 0
8 -37 -129 0
-8 -37 129 0
8 -100 0
71 -100 0
-8 -71 100 0
9 38 130 0
-9 38 -130 0
9 -38 -130 0
-9 -38 130 0
9 -101 0
72 -101 0
-9 -72 101 0
10 39 131 0
-10 39 -131 0
10 -39 -131 0
-10 -39 131 0
10 -102 0
73 -102 0
-10 -73 102 0
11 40 132 0
-11 40 -132 0
11 -40 -132 0
-11 -40 132 0
11 -103 0
74 -103 0
-11 -74 103 0
12 41 133 0
-12 41 -133 0
12 -41 -133 0
-12 -41 133 0
12 -104 0
75 -104 0
-12 -75 104 0
13 42 134 0
-13 42 -134 0
13 -42 -134 0
-13 -42 134 0
13 -105 0
76 -105 0
-13 -76 105 0
14 43 135 0
-14 43 -135 0
14 -43 -135 0
-14 -43 135 0
14 -106 0
77 -106 0
-14 -77 106 0
15 44 136 0
-15 44 -136 0
15 -44 -136 0
-15 -44 136 0
15 -107 0
78 -107 0
-15 -78 107 0
16 45 137 0
-16 45 -137 0
16 -45 -137 0
-16 -45 137 0
16 -108 0
79 -108 0
-16 -79 108 0
17 46 138 0
-17 46 -138 0
17 -46 -138 0
-17 -46 138 0
17 -109 0
80 -109 0
-17 -80 109 0
18 47 139 0
-18 47 -139 0
18 -47 -139 0
-18 -47 139 0
18 -110 0
81 -110 0
-18 -81 110 0
19 48 140 0
-19 48 -140 0
19 -48 -140 0
-19 -48 140 0
19 -111 0
82 -111 0
-19 -82 111 0
20 49 141 0
-20 49 -141 0
20 -49 -141 0
-20 -49 141 0
20 -112 0
83 -112 0
-20 -83 112 0
21 50 142 0
-21 50 -142 0
21 -50 -142 0
-21 -50 142 0
21 -113 0
84 -113 0
-21 -84 113 0
22 51 143 0
-22 51 -143 0
22 -51 -143 0
-22 -51 143 0
22 -114 0
85 -114 0
-22 -85 114 0
23 52 144 0
-23 52 -144 0
23 -52 -144 0
-23 -52 144 0
23 -115 0
86 -115 0
-23 -86 115 0
24 53 145 0
-24 53 -145 0
24 -53 -145 0
-24 -53 145 0
24 -116 0
87 -116 0
-24 -87 116 0
25 54 146 0
-25 54 -146 0
25 -54 -146 0
-25 -54 146 0
25 -117 0
88 -117 0
-25 -88 117 0
26 55 147 0
-26 55 -147 0
26 -55 -147 0
-26 -55 147 0
26 -118 0
89 -118 0
-26 -89 118 0
27 56 148 0
-27 56 -148 0
27 -56 -148 0
-27 -56 148 0
27 -119 0
90 -119 0
-27 -90 119 0
28 57 149 0
-28 57 -149 0
28 -57 -149 0
-28 -57 149 0
28 -120 0
91 -120 0
-28 -91 120 0
29 58 150 0
-29 58 -150 0
29 -58 -150 0
-29 -58 150 0
29 -121 0
92 -121 0
-29 -92 121 0
93 -151 0
123 -151 0
124 -151 0
125 -151 0
126 -151 0
127 -151 0
128 -151 0
129 -151 0
130 -151 0
131 -151 0
132 -151 0
133 -151 0
134 -151 0
135 -151 0
136 -151 0
137 -151 0
138 -151 0
139 -151 0
140 -151 0
141 -151 0
142 -151 0
143 -151 0
144 -151 0
145 -151 0
146 -151 0
147 -151 0
148 -151 0
149 -151 0
150 -151 0
-93 -123 -124 -125 -126 -127 -128 -129 -130 -131 -132 -133 -134 -135 -136 -137 -138 -139 -140 -141 -142 -143 -144 -145 -146 -147 -148 -149 -150 151 0
94 -152 0
124 -152 0
125 -152 0
126 -152 0
127 -152 0
128 -152 0
129 -152 0
130 -152 0
131 -152 0
132 -152 0
133 -152 0
134 -152 0
135 -152 0
136 -152 0
137 -152 0
138 -152 0
139 -152 0
140 -152 0
141 -152 0
142 -152 0
143 -152 0
144 -152 0
145 -152 0
146 -152 0
147 -152 0
148 -152 0
149 -152 0
150 -152 0
-94 -124 -125 -126 -127 -128 -129 -130 -131 -132 -133 -134 -135 -136 -137 -138 -139 -140 -141 -142 -143 -144 -145 -146 -147 -148 -149 -150 152 0
95 -153 0
125 -153 0
126 -153 0
127 -153 0
128 -153 0
129 -153 0
130 -153 0
131 -153 0
132 -153 0
133 -153 0
134 -153 0
135 -153 0
136 -153 0
137 -153 0
138 -153 0
139 -153 0
140 -153 0
141 -153 0
142 -153 0
143 -153 0
144 -153 0
145 -153 0
146 -153 0
147 -153 0
148 -153 0
149 -153 0
150 -153 0
-95 -125 -126 -127 -128 -129 -130 -131 -132 -133 -134 -135 -136 -137 -138 -139 -140 -141 -142 -143 -144 -145 -146 -147 -148 -149 -150 153 0
96 -154 0
126 -154 0
127 -154 0
128 -154 0
129 -154 0
130 -154 0
131 -154 0
132 -154 0
133 -154 0
134 -154 0
135 -154 0
136 -154 0
137 -154 0
138 -154 0
139 -154 0
140 -154 0
141 -154 0
142 -154 0
143 -154 0
144 -154 0
145 -154 0
146 -154 0
147 -154 0
148 -154 0
149 -154 0
150 -154 0
-96 -126 -127 -128 -129 -130 -131 -132 -133 -134 -135 -136 -137 -138 -139 -140 -141 -142 -143 -144 -145 -146 -147 -148 -149 -150 154 0
97 -155 0
127 -155 0
128 -155 0
129 -155 0
130 -155 0
131 -155 0
132 -155 0
133 -155 0
134 -155 0
135 -155 0
136 -155 0
137 -155 0
138 -155 0
139 -155 0
140 -155 0
141 -155 0
142 -155 0
143 -155 0
144 -155 0
145 -155 0
146 -155 0
147 -155 0
148 -155 0
149 -155 0
150 -155 0
-97 -127 -128 -129 -130 -131 -132 -133 -134 -135 -136 -137 -138 -139 -140 -141 -142 -143 -144 -145 -146 -147 -148 -149 -150 155 0
98 -156 0
128 -156 0
129 -156 0
130 -156 0
131 -156 0
132 -156 0
133 -156 0
134 -156 0
135 -156 0
136 -156 0
137 -156 0
138 -156 0
139 -156 0
140 -156 0
141 -156 0
142 -156 0
143 -156 0
144 -156 0
145 -156 0
146 -156 0
147 -156 0
148 -156 0
149 -156 0
150 -156 0
-98 -128 -129 -130 -131 -132 -133 -134 -135 -136 -137 -138 -139 -140 -141 -142 -143 -144 -145 -146 -147 -148 -149 -150 156 0
99 -157 0
129 -157 0
130 -157 0
131 -157 0
132 -157 0
133 -157 0
134 -157 0
135 -157 0
136 -157 0
137 -157 0
138 -157 0
139 -157 0
140 -157 0
141 -157 0
142 -157 0
143 -157 0
144 -157 0
145 -157 0
146 -157 0
147 -157 0
148 -157 0
149 -157 0
150 -157 0
-99 -129 -130 -131 -132 -133 -134 -135 -136 -137 -138 -139 -140 -141 -142 -143 -144 -145 -146 -147 -148 -149 -150 157 0
100 -158 0
130 -158 0
131 -158 0
132 -158 0
133 -158 0
134 -158 0
135 -158 0
136 -158 0
137 -158 0
138 -158 0
139 -158 0
140 -158 0
141 -158 0
142 -158 0
143 -158 0
144 -158 0
145 -158 0
146 -158 0
147 -158 0
148 -158 0
149 -158 0
150 -158 0
-100 -130 -131 -132 -133 -134 -135 -136 -137 -138 -139 -140 -141 -142 -143 -144 -145 -146 -147 -148 -149 -150 158 0
101 -159 0
131 -159 0
132 -159 0
133 -159 0
134 -159 0
135 -159 0
136 -159 0
137 -159 0
138 -159 0
139 -159 0
140 -159 0
141 -159 0
142 -159 0
143 -159 0
144 -159 0
145 -159 0
146 -159 0
147 -159 0
148 -159 0
149 -159 0
150 -159 0
-101 -131 -132 -133 -134 -135 -136 -137 -138 -139 -140 -141 -142 -143 -144 -145 -146 -147 -148 -149 -150 159 0
102 -160 0
132 -160 0
133 -160 0
134 -160 0
135 -160 0
136 -160 0
137 -160 0
138 -160 0
139 -160 0
140 -160 0
141 -160 0
142 -160 0
143 -160 0
144 -160 0
145 -160 0
146 -160 0
147 -160 0
148 -160 0
149 -160 0
150 -160 0
-102 -132 -133 -134 -135 -136 -137 -138 -139 -140 -141 -142 -143 -144 -145 -146 -147 -148 -149 -150 160 0
103 -161 0
133 -161 0
134 -161 0
135 -161 0
136 -161 0
137 -161 0
138 -161 0
139 -161 0
140 -161 0
141 -161 0
142 -161 0
143 -161 0
144 -161 0
145 -161 0
146 -161 0
147 -161 0
148 -161 0
149 -161 0
150 -161 0
-103 -133 -134 -135 -136 -137 -138 -139 -140 -141 -142 -143 -144 -145 -146 -147 -148 -149 -150 161 0
104 -162 0
134 -162 0
135 -162 0
136 -162 0
137 -162 0
138 -162 0
139 -162 0
140 -162 0
141 -162 0
142 -162 0
143 -162 0
144 -162 0
145 -162 0
146 -162 0
147 -162 0
148 -162 0
149 -162 0
150 -162 0
-104 -134 -135 -136 -137 -138 -139 -140 -141 -142 -143 -144 -145 -146 -147 -148 -149 -150 162 0
105 -163 0
135 -163 0
136 -163 0
137 -163 0
138 -163 0
139 -163 0
140 -163 0
141 -163 0
142 -163 0
143 -163 0
144 -163 0
145 -163 0
146 -163 0
147 -163 0
148 -163 0
149 -163 0
150 -163 0
-105 -135 -136 -137 -138 -139 -140 -141 -142 -143 -144 -145 -146 -147 -148 -149 -150 163 0
106 -164 0
136 -164 0
137 -164 0
138 -164 0
139 -164 0
140 -164 0
141 -164 0
142 -164 0
143 -164 0
144 -164 0
145 -164 0
146 -164 0
147 -164 0
148 -164 0
149 -164 0
150 -164 0
-106 -136 -137 -138 -139 -140 -141 -142 -143 -144 -145 -146 -147 -148 -149 -150 164 0
107 -165 0
137 -165 0
138 -165 0
139 -165 0
140 -165 0
141 -165 0
142 -165 0
143 -165 0
144 -165 0
145 -165 0
146 -165 0
147 -165 0
148 -165 0
149 -165 0
150 -165 0
-107 -137 -138 -139 -140 -141 -142 -143 -144 -145 -146 -147 -148 -149 -150 165 0
108 -166 0
138 -166 0
139 -166 0
140 -166 0
141 -166 0
142 -166 0
143 -166 0
144 -166 0
145 -166 0
146 -166 0
147 -166 0
148 -166 0
149 -166 0
150 -166 0
-108 -138 -139 -140 -141 -142 -143 -144 -145 -146 -147 -148 -149 -150 166 0
109 -167 0
139 -167 0
140 -167 0
141 -167 0
142 -167 0
143 -167 0
144 -167 0
145 -167 0
146 -167 0
147 -167 0
148 -167 0
149 -167 0
150 -167 0
-109 -139 -140 -141 -142 -143 -144 -145 -146 -147 -148 -149 -150 167 0
110 -168 0
140 -168 0
141 -168 0
142 -168 0
143 -168 0
144 -168 0
145 -168 0
146 -168 0
147 -168 0
148 -168 0
149 -168 0
150 -168 0
-110 -140 -141 -142 -143 -144 -145 -146 -147 -148 -149 -150 168 0
111 -169 0
141 -169 0
142 -169 0
143 -169 0
144 -169 0
145 -169 0
146 -169 0
147 -169 0
148 -169 0
149 -169 0
150 -169 0
-111 -141 -142 -143 -144 -145 -146 -147 -148 -149 -150 169 0
112 -170 0
142 -170 0
143 -170 0
144 -170 0
145 -170 0
146 -170 0
147 -170 0
148 -170 0
149 -170 0
150 -170 0
-112 -142 -143 -144 -145 -146 -147 -148 -149 -150 170 0
113 -171 0
143 -171 0
144 -171 0
145 -171 0
146 -171 0
147 -171 0
148 -171 0
149 -171 0
150 -171 0
-113 -143 -144 -145 -146 -147 -148 -149 -150 171 0
114 -172 0
144 -172 0
145 -172 0
146 -172 0
147 -172 0
148 -172 0
149 -172 0
150 -172 0
-114 -144 -145 -146 -147 -148 -149 -150 172 0
115 -173 0
145 -173 0
146 -173 0
147 -173 0
148 -173 0
149 -173 0
150 -173 0
-115 -145 -146 -147 -148 -149 -150 173 0
116 -174 0
146 -174 0
147 -174 0
148 -174 0
149 -174 0
150 -174 0
-116 -146 -147 -148 -149 -150 174 0
117 -175 0
147 -175 0
148 -175 0
149 -175 0
150 -175 0
-117 -147 -148 -149 -150 175 0
118 -176 0
148 -176 0
149 -176 0
150 -176 0
-118 -148 -149 -150 176 0
119 -177 0
149 -177 0
150 -177 0
-119 -149 -150 177 0
120 -178 0
150 -178 0
-120 -150 178 0
121 -179 0
-121 179 0
-151 59 0
-152 59 0
-153 59 0
-154 59 0
-155 59 0
-156 59 0
-157 59 0
-158 59 0
-159 59 0
-160 59 0
-161 59 0
-162 59 0
-163 59 0
-164 59 0
-165 59 0
-166 59 0
-167 59 0
-168 59 0
-169 59 0
-170 59 0
-171 59 0
-172 59 0
-173 59 0
-174 59 0
-175 59 0
-176 59 0
-177 59 0
-178 59 0
-179 59 0
151 152 153 154 155 156 157 158 159 160 161 162 163 164 165 166 167 168 169 170 171 172 173 174 175 176 177 178 179 -59 0
122 -60 0
123 -60 0
124 -60 0
125 -60 0
126 -60 0
127 -60 0
128 -60 0
129 -60 0
130 -60 0
131 -60 0
132 -60 0
133 -60 0
134 -60 0
135 -60 0
136 -60 0
137 -60 0
138 -60 0
139 -60 0
140 -60 0
141 -60 0
142 -60 0
143 -60 0
144 -60 0
145 -60 0
146 -60 0
147 -60 0
148 -60 0
149 -60 0
150 -60 0
-122 -123 -124 -125 -126 -127 -128 -129 -130 -131 -132 -133 -134 -135 -136 -137 -138 -139 -140 -141 -142 -143 -144 -145 -146 -147 -148 -149 -150 60 0
-59 -61 0
-60 -61 0
59 60 61 0
